p cnf 77 266
1 2 3 4 5 6  0
-7 1 0
7 -1 0
-8 7 2 0
8 -7 0
8 -2 0
-9 8 3 0
9 -8 0
9 -3 0
-10 9 4 0
10 -9 0
10 -4 0
-11 10 5 0
11 -10 0
11 -5 0
-7 -2 0
-8 -3 0
-9 -4 0
-10 -5 0
-11 -6 0
12 13 14 15 16 17  0
-18 12 0
18 -12 0
-19 18 13 0
19 -18 0
19 -13 0
-20 19 14 0
20 -19 0
20 -14 0
-21 20 15 0
21 -20 0
21 -15 0
-22 21 16 0
22 -21 0
22 -16 0
-18 -13 0
-19 -14 0
-20 -15 0
-21 -16 0
-22 -17 0
23 24 25 26 27 28  0
-29 23 0
29 -23 0
-30 29 24 0
30 -29 0
30 -24 0
-31 30 25 0
31 -30 0
31 -25 0
-32 31 26 0
32 -31 0
32 -26 0
-33 32 27 0
33 -32 0
33 -27 0
-29 -24 0
-30 -25 0
-31 -26 0
-32 -27 0
-33 -28 0
34 35 36 37 38 39  0
-40 34 0
40 -34 0
-41 40 35 0
41 -40 0
41 -35 0
-42 41 36 0
42 -41 0
42 -36 0
-43 42 37 0
43 -42 0
43 -37 0
-44 43 38 0
44 -43 0
44 -38 0
-40 -35 0
-41 -36 0
-42 -37 0
-43 -38 0
-44 -39 0
45 46 47 48 49 50  0
-51 45 0
51 -45 0
-52 51 46 0
52 -51 0
52 -46 0
-53 52 47 0
53 -52 0
53 -47 0
-54 53 48 0
54 -53 0
54 -48 0
-55 54 49 0
55 -54 0
55 -49 0
-51 -46 0
-52 -47 0
-53 -48 0
-54 -49 0
-55 -50 0
56 57 58 59 60 61  0
-62 56 0
62 -56 0
-63 62 57 0
63 -62 0
63 -57 0
-64 63 58 0
64 -63 0
64 -58 0
-65 64 59 0
65 -64 0
65 -59 0
-66 65 60 0
66 -65 0
66 -60 0
-62 -57 0
-63 -58 0
-64 -59 0
-65 -60 0
-66 -61 0
67 68 69 70 71 72  0
-73 67 0
73 -67 0
-74 73 68 0
74 -73 0
74 -68 0
-75 74 69 0
75 -74 0
75 -69 0
-76 75 70 0
76 -75 0
76 -70 0
-77 76 71 0
77 -76 0
77 -71 0
-73 -68 0
-74 -69 0
-75 -70 0
-76 -71 0
-77 -72 0
-12 -1 0
-23 -1 0
-23 -12 0
-34 -1 0
-34 -12 0
-34 -23 0
-45 -1 0
-45 -12 0
-45 -23 0
-45 -34 0
-56 -1 0
-56 -12 0
-56 -23 0
-56 -34 0
-56 -45 0
-67 -1 0
-67 -12 0
-67 -23 0
-67 -34 0
-67 -45 0
-67 -56 0
-13 -2 0
-24 -2 0
-24 -13 0
-35 -2 0
-35 -13 0
-35 -24 0
-46 -2 0
-46 -13 0
-46 -24 0
-46 -35 0
-57 -2 0
-57 -13 0
-57 -24 0
-57 -35 0
-57 -46 0
-68 -2 0
-68 -13 0
-68 -24 0
-68 -35 0
-68 -46 0
-68 -57 0
-14 -3 0
-25 -3 0
-25 -14 0
-36 -3 0
-36 -14 0
-36 -25 0
-47 -3 0
-47 -14 0
-47 -25 0
-47 -36 0
-58 -3 0
-58 -14 0
-58 -25 0
-58 -36 0
-58 -47 0
-69 -3 0
-69 -14 0
-69 -25 0
-69 -36 0
-69 -47 0
-69 -58 0
-15 -4 0
-26 -4 0
-26 -15 0
-37 -4 0
-37 -15 0
-37 -26 0
-48 -4 0
-48 -15 0
-48 -26 0
-48 -37 0
-59 -4 0
-59 -15 0
-59 -26 0
-59 -37 0
-59 -48 0
-70 -4 0
-70 -15 0
-70 -26 0
-70 -37 0
-70 -48 0
-70 -59 0
-16 -5 0
-27 -5 0
-27 -16 0
-38 -5 0
-38 -16 0
-38 -27 0
-49 -5 0
-49 -16 0
-49 -27 0
-49 -38 0
-60 -5 0
-60 -16 0
-60 -27 0
-60 -38 0
-60 -49 0
-71 -5 0
-71 -16 0
-71 -27 0
-71 -38 0
-71 -49 0
-71 -60 0
-17 -6 0
-28 -6 0
-28 -17 0
-39 -6 0
-39 -17 0
-39 -28 0
-50 -6 0
-50 -17 0
-50 -28 0
-50 -39 0
-61 -6 0
-61 -17 0
-61 -28 0
-61 -39 0
-61 -50 0
-72 -6 0
-72 -17 0
-72 -28 0
-72 -39 0
-72 -50 0
-72 -61 0
